sat
(:max-memory         18.05
 :memory             17.95
 :nlsat-propagations 7
 :nlsat-stages       4
 :num-allocs         27387
 :rlimit-count       1378
 :time               0.00
 :total-time         0.01)
